p edge 120 582
1 2
1 104
1 93
1 82
1 74
2 106
2 56
2 117
2 3
2 93
3 113
3 72
3 9
3 78
3 4
4 83
4 82
4 5
4 103
4 70
5 70
5 95
5 107
5 6
5 109
6 98
6 118
6 115
6 100
6 7
7 22
7 21
7 72
7 116
7 8
8 36
8 78
8 9
8 4
8 37
9 10
9 113
9 48
9 2
9 84
10 114
10 43
10 52
10 29
10 11
11 92
11 8
11 12
11 48
11 4
12 54
12 48
12 103
12 13
12 101
13 23
13 32
13 14
13 25
14 88
14 18
14 2
14 15
15 26
15 40
15 16
15 47
15 52
16 1
16 17
16 27
16 58
16 7
17 18
17 31
17 80
17 50
18 93
18 19
18 86
18 114
18 29
19 61
19 115
19 20
19 77
19 102
20 54
20 90
20 21
20 47
20 9
21 37
21 22
21 60
21 120
21 31
22 63
22 115
22 116
22 112
22 23
23 72
23 26
23 31
23 87
23 24
24 49
24 63
24 26
24 60
24 25
25 39
25 8
25 65
25 17
25 26
26 20
26 98
26 27
26 101
27 54
27 18
27 78
27 51
27 28
28 79
28 100
28 29
28 84
28 25
29 62
29 101
29 54
29 30
29 85
30 31
30 36
30 69
30 23
30 3
31 45
31 32
31 68
31 107
31 114
32 64
32 33
32 9
32 108
32 6
33 16
33 34
33 78
33 19
33 36
34 102
34 87
34 53
34 35
34 7
35 36
35 38
35 91
35 117
35 95
36 64
36 116
36 108
36 100
36 37
37 43
37 70
37 38
37 98
37 67
38 56
38 39
38 86
38 119
39 4
39 6
39 90
39 40
39 50
40 41
40 69
40 28
40 5
40 91
41 17
41 40
41 23
41 107
41 42
42 35
42 43
42 31
42 118
42 22
43 63
43 60
43 64
43 44
43 18
44 116
44 66
44 45
44 68
44 83
45 54
45 57
45 61
45 46
46 80
46 12
46 47
46 91
46 7
47 43
47 21
47 16
47 48
47 102
48 60
48 107
48 82
48 61
48 49
49 68
49 116
49 85
49 50
50 51
50 64
50 114
50 75
50 58
51 87
51 48
51 103
51 52
52 53
52 69
52 3
52 88
52 46
53 96
53 54
53 102
53 14
53 39
54 10
54 55
54 85
54 4
54 21
55 56
55 29
55 74
55 105
56 24
56 9
56 13
56 57
56 25
57 85
57 84
57 7
57 21
57 58
58 59
58 28
58 19
58 55
58 29
59 54
59 98
59 60
59 97
59 5
60 61
60 118
60 63
60 29
60 97
61 52
61 62
61 106
61 66
61 91
62 28
62 32
62 8
62 92
62 63
63 66
63 9
63 52
63 64
64 31
64 18
64 83
64 25
64 65
65 85
65 37
65 66
65 118
65 76
66 106
66 67
66 18
66 110
67 44
67 68
67 24
67 5
67 81
68 69
68 89
68 6
68 21
68 108
69 95
69 58
69 70
69 12
69 28
70 71
70 102
70 72
70 50
70 75
71 97
71 103
71 27
71 72
72 94
72 44
72 59
72 73
72 15
73 102
73 74
73 35
73 70
73 79
74 51
74 97
74 68
74 75
74 17
75 16
75 4
75 116
75 91
75 76
76 113
76 48
76 24
76 77
76 27
77 13
77 42
77 101
77 5
77 78
78 68
78 79
78 54
78 81
79 80
79 107
79 38
79 96
79 58
80 70
80 40
80 116
80 69
80 81
81 111
81 94
81 84
81 82
81 66
82 112
82 18
82 83
82 53
82 95
83 81
83 100
83 118
83 84
83 26
84 98
84 108
84 92
84 85
84 69
85 92
85 37
85 47
85 110
85 86
86 31
86 87
86 54
86 56
86 30
87 88
87 73
87 21
87 102
87 26
88 79
88 116
88 17
88 89
88 120
89 37
89 1
89 90
89 94
89 44
90 98
90 86
90 74
90 60
90 91
91 51
91 35
91 55
91 7
91 92
92 52
92 21
92 53
92 93
92 115
93 101
93 24
93 94
93 33
93 22
94 9
94 87
94 64
94 78
94 95
95 96
95 49
95 74
95 109
95 117
96 92
96 97
96 88
96 44
96 103
97 48
97 11
97 27
97 98
98 120
98 99
98 116
98 85
98 74
99 68
99 10
99 4
99 3
99 100
100 119
100 65
100 68
100 105
100 101
101 52
101 27
101 102
101 7
101 5
102 82
102 118
102 76
102 1
102 103
103 97
103 104
103 60
103 39
103 80
104 102
104 114
104 105
104 32
104 28
105 106
105 91
105 120
106 107
106 24
106 26
106 31
106 6
107 102
107 71
107 108
107 111
107 67
108 87
108 109
108 92
108 1
109 49
109 110
109 11
109 81
109 7
110 87
110 116
110 36
110 111
110 19
111 36
111 113
111 112
111 14
111 52
112 55
112 109
112 31
112 67
112 113
113 98
113 16
113 66
113 114
113 9
114 115
114 89
114 60
114 58
114 1
115 77
115 116
115 93
115 41
115 83
116 94
116 21
116 105
116 117
116 30
117 58
117 40
117 118
117 31
118 79
118 5
118 119
118 73
118 12
119 120
119 7
119 33
119 111
119 113
120 73
120 104
120 62
120 1
120 71
